# Solution for model obj
# Objective value = 2.3010449585425140e+03
ch1_enwk_4nc_1_m_perc 2.2973913248741143e-01
ch1_enwk_4nc_1_y 1
ch2_enwk_4nc_1_m_perc 7.7026086751258827e-01
ch2_enwk_4nc_1_y 1
ch3_enwk_4nc_1_m_perc 0
ch3_enwk_4nc_1_y 0
ch1_ep_4nc_1_m_flow 1.3554608816757275e+02
ch1_ep_4nc_1_y 1
ch1_ep_4nc_1_delp 6.5655224109628865e+00
ch2_ep_4nc_1_m_flow 4.5445391183242708e+02
ch2_ep_4nc_1_y 1
ch2_ep_4nc_1_delp 7.2838384482360263e+00
ch3_ep_4nc_1_m_flow 0
ch3_ep_4nc_1_y 0
ch3_ep_4nc_1_delp 0
sp1_temp_4nc_t_inout 4.3358960539256981e-02
sp1_temp_4nc_y 1
ice_nwk_4nc_1_m_perc 2.2047065440762351e-01
ice_nwk_4nc_1_y 1
gv2_nwk_4nc_1_m_perc 1.4527845036319614e-01
gv2_nwk_4nc_1_y 1
hsb_nwk_4nc_1_m_perc 7.5192204044427363e-02
hsb_nwk_4nc_1_y 1
tro_nwk_4nc_1_m_perc 1.5038440808885473e-01
tro_nwk_4nc_1_y 1
pfa_nwk_4nc_1_m_perc 7.5192204044427363e-02
pfa_nwk_4nc_1_y 1
ser_nwk_4nc_1_m_perc 7.5192204044427363e-02
ser_nwk_4nc_1_y 1
para_nwk_con_4nc_delp 3.5592744828848268e+01
para_nwk_con_4nc_y 1
dist_np_4nc_combi_0_0_m_flow 0
dist_np_4nc_combi_0_0_y 0
dist_np_4nc_combi_0_0_delp 0
dist_np_4nc_combi_1_0_m_flow 2.1880448687293000e+02
dist_np_4nc_combi_1_0_y 1
dist_np_4nc_combi_1_0_delp 3.5592744828848268e+01
dist_np_4nc_combi_2_0_m_flow 2.3119080358734003e-12
dist_np_4nc_combi_2_0_y 0
dist_np_4nc_combi_2_0_delp 0
dist_np_4nc_combi_3_0_m_flow 0
dist_np_4nc_combi_3_0_y 0
dist_np_4nc_combi_3_0_delp 0
dist_np_4nc_combi_4_0_m_flow 0
dist_np_4nc_combi_4_0_y 0
dist_np_4nc_combi_4_0_delp 0
dist_np_4nc_combi_5_0_m_flow 0
dist_np_4nc_combi_5_0_y 0
dist_np_4nc_combi_5_0_delp 0
dist_np_4nc_combi_6_0_m_flow 0
dist_np_4nc_combi_6_0_y 0
dist_np_4nc_combi_6_0_delp 0
ch1_4nc_1_evap_u0 2.7317145251308750e-01
ch1_4nc_1_evap_u0_y 1
ch1_4nc_1_evap_v0 0
ch1_4nc_1_evap_v0_y 0
ch1_4nc_1_evap_u1 0
ch1_4nc_1_evap_u1_y 0
ch1_4nc_1_evap_v1 1.8630681246173530e-01
ch1_4nc_1_evap_v1_y 1
ch2_4nc_1_evap_u0 7.7026086751258827e-01
ch2_4nc_1_evap_u0_y 1
ch2_4nc_1_evap_v0 0
ch2_4nc_1_evap_v0_y 0
ch2_4nc_1_evap_u1 0
ch2_4nc_1_evap_u1_y 0
ch2_4nc_1_evap_v1 7.7026086751258827e-01
ch2_4nc_1_evap_v1_y 1
ch3_4nc_1_evap_u0 0
ch3_4nc_1_evap_u0_y 0
ch3_4nc_1_evap_v0 0
ch3_4nc_1_evap_v0_y 0
ch3_4nc_1_evap_u1 0
ch3_4nc_1_evap_u1_y 0
ch3_4nc_1_evap_v1 0
ch3_4nc_1_evap_v1_y 0
cp_nwk_4nc_u0 6.7250389804277888e-01
cp_nwk_4nc_u0_y 1
cp_nwk_4nc_v0 0
cp_nwk_4nc_v0_y 0
cp_nwk_4nc_u1 0
cp_nwk_4nc_u1_y 0
cp_nwk_4nc_v1 5.8578597696426493e-01
cp_nwk_4nc_v1_y 1
gv2_ss_4nc_u0 2.2047065440762348e-01
gv2_ss_4nc_u0_y 1
gv2_ss_4nc_v0 0
gv2_ss_4nc_v0_y 0
gv2_ss_4nc_u1 0
gv2_ss_4nc_u1_y 0
gv2_ss_4nc_v1 7.0086246318768752e-02
gv2_ss_4nc_v1_y 1
hsb_ss_4nc_u0 1.5038440808885473e-01
hsb_ss_4nc_u0_y 1
hsb_ss_4nc_v0 0
hsb_ss_4nc_v0_y 0
hsb_ss_4nc_u1 0
hsb_ss_4nc_u1_y 0
hsb_ss_4nc_v1 0
hsb_ss_4nc_v1_y 1
pfa_ss_4nc_u0 1.5038440808885473e-01
pfa_ss_4nc_u0_y 1
pfa_ss_4nc_v0 0
pfa_ss_4nc_v0_y 0
pfa_ss_4nc_u1 0
pfa_ss_4nc_u1_y 0
pfa_ss_4nc_v1 0
pfa_ss_4nc_v1_y 1
ser_ss_4nc_u0 1.5038440808885473e-01
ser_ss_4nc_u0_y 1
ser_ss_4nc_v0 0
ser_ss_4nc_v0_y 0
ser_ss_4nc_u1 0
ser_ss_4nc_u1_y 0
ser_ss_4nc_v1 0
ser_ss_4nc_v1_y 1
ch_e_f_c_4nc_m_perc 1
ch_e_f_c_4nc_y 1
ch_evap_ret_4nc_t_in 1
ch_evap_ret_4nc_y 1
ch1_4nc_1_evap_y 1
ch2_4nc_1_evap_y 1
ch3_4nc_1_evap_y 0
cp_nwk_4nc_y 1
gv2_ss_4nc_y 1
hsb_ss_4nc_y 1
pfa_ss_4nc_y 1
ser_ss_4nc_y 1
